Route #1: 12 47 18 25 14
Route #2: 1 22 32 11 38 16 29 21 50 9 10 49 5 46
Route #3: 27 48 8 26 31 28 3 36 35 20
Route #4: 17 37 44 15 45 33 39 30 34 2
Route #5: 4 42 19 40 41 13 24 43 7 23 6
Cost 579
